12° run output:
{
    "Function": "kroA400.tsp",
    "Problem dimension": [
        223,
        184,
        90,
        214,
        300,
        92,
        26,
        30,
        112,
        376,
        216,
        1,
        333,
        67,
        225,
        282,
        114,
        213,
        369,
        37,
        33,
        268,
        305,
        113,
        87,
        374,
        389,
        188,
        341,
        220,
        45,
        293,
        307,
        346,
        93,
        2,
        72,
        398,
        222,
        143,
        357,
        350,
        182,
        270,
        385,
        161,
        210,
        108,
        323,
        235,
        217,
        349,
        136,
        208,
        233,
        247,
        119,
        236,
        16,
        334,
        302,
        49,
        201,
        97,
        311,
        71,
        278,
        53,
        257,
        35,
        135,
        241,
        123,
        209,
        269,
        14,
        249,
        366,
        178,
        198,
        359,
        31,
        91,
        175,
        57,
        24,
        190,
        102,
        151,
        368,
        342,
        20,
        163,
        40,
        315,
        28,
        200,
        125,
        361,
        169,
        375,
        118,
        283,
        234,
        179,
        232,
        22,
        360,
        74,
        181,
        354,
        62,
        8,
        218,
        226,
        165,
        337,
        81,
        152,
        65,
        10,
        344,
        127,
        107,
        364,
        377,
        381,
        242,
        317,
        252,
        332,
        265,
        313,
        251,
        99,
        207,
        95,
        43,
        243,
        55,
        297,
        85,
        155,
        44,
        380,
        271,
        139,
        255,
        244,
        370,
        134,
        196,
        327,
        325,
        387,
        149,
        328,
        52,
        129,
        111,
        394,
        276,
        5,
        303,
        212,
        167,
        253,
        130,
        117,
        391,
        164,
        379,
        335,
        204,
        202,
        98,
        105,
        59,
        32,
        371,
        312,
        79,
        61,
        7,
        308,
        185,
        306,
        122,
        180,
        168,
        326,
        42,
        142,
        171,
        275,
        329,
        205,
        272,
        153,
        94,
        70,
        228,
        264,
        69,
        132,
        281,
        229,
        192,
        363,
        126,
        88,
        288,
        177,
        154,
        395,
        348,
        156,
        3,
        284,
        77,
        15,
        384,
        75,
        27,
        186,
        106,
        267,
        309,
        227,
        133,
        320,
        256,
        144,
        191,
        373,
        289,
        146,
        160,
        239,
        336,
        299,
        351,
        68,
        51,
        12,
        128,
        21,
        166,
        101,
        96,
        347,
        324,
        245,
        58,
        258,
        319,
        11,
        170,
        89,
        150,
        290,
        4,
        310,
        138,
        211,
        240,
        314,
        221,
        331,
        231,
        224,
        316,
        362,
        34,
        266,
        157,
        274,
        254,
        330,
        219,
        294,
        147,
        64,
        338,
        367,
        23,
        120,
        386,
        378,
        183,
        292,
        230,
        189,
        141,
        353,
        103,
        263,
        262,
        291,
        80,
        193,
        148,
        13,
        246,
        248,
        172,
        390,
        104,
        301,
        84,
        295,
        187,
        115,
        355,
        47,
        6,
        25,
        39,
        340,
        237,
        352,
        131,
        296,
        322,
        82,
        345,
        124,
        260,
        277,
        63,
        121,
        83,
        261,
        9,
        158,
        173,
        17,
        399,
        109,
        174,
        396,
        286,
        279,
        137,
        60,
        0,
        358,
        194,
        285,
        203,
        73,
        273,
        259,
        56,
        76,
        50,
        206,
        36,
        382,
        383,
        250,
        215,
        100,
        318,
        38,
        140,
        304,
        41,
        19,
        162,
        66,
        321,
        18,
        298,
        392,
        356,
        339,
        29,
        197,
        388,
        372,
        343,
        287,
        48,
        86,
        280,
        116,
        78,
        159,
        145,
        397,
        46,
        238,
        195,
        199,
        176,
        110,
        393,
        54,
        365
    ],
    "Global Optimum": 0,
    "Algorithm": "Genetic algorithm",
    "Parameters": {
        "population": 30,
        "offspring": 30,
        "mutation probability": 0.0025,
        "crossover probability": 0.9
    },
    "Fitness": 389856,
    "Solution": [
        223,
        184,
        90,
        214,
        300,
        92,
        26,
        30,
        112,
        376,
        216,
        1,
        333,
        67,
        225,
        282,
        114,
        213,
        369,
        37,
        33,
        268,
        305,
        113,
        87,
        374,
        389,
        188,
        341,
        220,
        45,
        293,
        307,
        346,
        93,
        2,
        72,
        398,
        222,
        143,
        357,
        350,
        182,
        270,
        385,
        161,
        210,
        108,
        323,
        235,
        217,
        349,
        136,
        208,
        233,
        247,
        119,
        236,
        16,
        334,
        302,
        49,
        201,
        97,
        311,
        71,
        278,
        53,
        257,
        35,
        135,
        241,
        123,
        209,
        269,
        14,
        249,
        366,
        178,
        198,
        359,
        31,
        91,
        175,
        57,
        24,
        190,
        102,
        151,
        368,
        342,
        20,
        163,
        40,
        315,
        28,
        200,
        125,
        361,
        169,
        375,
        118,
        283,
        234,
        179,
        232,
        22,
        360,
        74,
        181,
        354,
        62,
        8,
        218,
        226,
        165,
        337,
        81,
        152,
        65,
        10,
        344,
        127,
        107,
        364,
        377,
        381,
        242,
        317,
        252,
        332,
        265,
        313,
        251,
        99,
        207,
        95,
        43,
        243,
        55,
        297,
        85,
        155,
        44,
        380,
        271,
        139,
        255,
        244,
        370,
        134,
        196,
        327,
        325,
        387,
        149,
        328,
        52,
        129,
        111,
        394,
        276,
        5,
        303,
        212,
        167,
        253,
        130,
        117,
        391,
        164,
        379,
        335,
        204,
        202,
        98,
        105,
        59,
        32,
        371,
        312,
        79,
        61,
        7,
        308,
        185,
        306,
        122,
        180,
        168,
        326,
        42,
        142,
        171,
        275,
        329,
        205,
        272,
        153,
        94,
        70,
        228,
        264,
        69,
        132,
        281,
        229,
        192,
        363,
        126,
        88,
        288,
        177,
        154,
        395,
        348,
        156,
        3,
        284,
        77,
        15,
        384,
        75,
        27,
        186,
        106,
        267,
        309,
        227,
        133,
        320,
        256,
        144,
        191,
        373,
        289,
        146,
        160,
        239,
        336,
        299,
        351,
        68,
        51,
        12,
        128,
        21,
        166,
        101,
        96,
        347,
        324,
        245,
        58,
        258,
        319,
        11,
        170,
        89,
        150,
        290,
        4,
        310,
        138,
        211,
        240,
        314,
        221,
        331,
        231,
        224,
        316,
        362,
        34,
        266,
        157,
        274,
        254,
        330,
        219,
        294,
        147,
        64,
        338,
        367,
        23,
        120,
        386,
        378,
        183,
        292,
        230,
        189,
        141,
        353,
        103,
        263,
        262,
        291,
        80,
        193,
        148,
        13,
        246,
        248,
        172,
        390,
        104,
        301,
        84,
        295,
        187,
        115,
        355,
        47,
        6,
        25,
        39,
        340,
        237,
        352,
        131,
        296,
        322,
        82,
        345,
        124,
        260,
        277,
        63,
        121,
        83,
        261,
        9,
        158,
        173,
        17,
        399,
        109,
        174,
        396,
        286,
        279,
        137,
        60,
        0,
        358,
        194,
        285,
        203,
        73,
        273,
        259,
        56,
        76,
        50,
        206,
        36,
        382,
        383,
        250,
        215,
        100,
        318,
        38,
        140,
        304,
        41,
        19,
        162,
        66,
        321,
        18,
        298,
        392,
        356,
        339,
        29,
        197,
        388,
        372,
        343,
        287,
        48,
        86,
        280,
        116,
        78,
        159,
        145,
        397,
        46,
        238,
        195,
        199,
        176,
        110,
        393,
        54,
        365
    ],
    "Nb of functions evaluations": 400020,
    "Computational time in seconds": 1154.2342247962952,
    "Stopping criterion in evaluations": 400000
}